NAME          BLANK   
ROWS
 N  OBJROW
 L  c1
 L  c2
 L  c3
COLUMNS
    Sun       OBJROW    0.05           c1        0.1         
    Sun       c2        1.          
    Moon      OBJROW    0.08           c1        0.2         
    Moon      c3        1.          
RHS
    RHS       c1        1400.          c2        8000.       
    RHS       c3        5000.       
BOUNDS
 UP BOUND     Sun       1000000.    
 UP BOUND     Moon      1000000.    
ENDATA
